(assert (forall ((pkt_0_3_5_0  Int  )(state_group_0_state_0_4_6_0  Int  )) (let ((_n0 state_group_0_state_0_4_6_0 ))
(let ((_n1 true ))
(let ((_n2 (+   _n0   (ite  _n1  1 0) ) ))
(let ((_n3 false ))
(let ((_n4 (ite (=  _n0  29)  (ite  _n3  1 0)   _n0  ) ))
(let ((_n5 (ite (=  _n0  29)  _n4   _n2  ) ))
(let ((_n6 29 ))
(let ((_n7 (=   _n0   _n6 ) ))
(let ((_n8 (not  _n7 ) ))
(let ((_n9 (+   _n0   (ite  _n8  1 0) ) ))
(let ((_n10 (ite (=  (ite  _n7  1 0)  1)  _n4   _n9  ) ))
(let ((_n11 (=   _n10   _n5 ) ))
(let ((_n13 pkt_0_3_5_0 ))
(let ((_n14 (ite (=  _n0  29)  (ite  _n1  1 0)   _n13  ) ))
(let ((_n15 (ite (=  _n0  29)  _n14   (ite  _n3  1 0)  ) ))
(let ((_n16 (=   _n10   (ite  _n3  1 0) ) ))
(let ((_n17 (ite (=  (ite  _n16  1 0)  1)  _n16   _n3  ) ))
(let ((_n18 (=   _n17   _n15 ) ))
(implies  (and (and (>= state_group_0_state_0_4_6_0 0) (< state_group_0_state_0_4_6_0 1024 ))  (and (>= pkt_0_3_5_0 0) (< pkt_0_3_5_0 1024 )) )   (and  _n11  _n18 )  )))))))))))))))))))))
(check-sat)
(get-model)
(exit)